4 5 7 
3 1 1 3 1 157 2 145 7 144 2 4 5 2 150 3 132 4 138 6 140 7 146 2 3 4 139 5 132 6 137 2 4 4 2 144 3 153 6 158 7 142 5 1 4 171 
3 2 1 5 1 196 3 222 4 217 5 232 7 220 3 1 3 139 2 3 2 3 95 4 88 2 4 3 60 4 65 5 65 6 62 1 5 1 1 175 
3 2 1 4 1 95 2 81 4 79 6 87 2 1 5 67 1 3 1 1 185 2 4 5 1 192 2 207 3 178 4 173 5 177 5 1 1 91 
3 2 1 3 4 95 5 79 7 82 2 3 2 59 3 71 4 65 1 5 4 1 178 3 189 4 157 5 181 2 4 2 4 133 5 132 3 2 6 126 7 135 
